p tw 44 94
5 15
10 14
10 13
10 15
14 18
1 6
1 15
1 10
1 18
1 8
6 17
6 9
9 42
9 20
9 17
9 15
2 16
2 4
2 9
2 3
2 14
2 20
12 15
12 19
12 13
18 43
18 20
8 10
8 11
8 16
4 14
4 12
4 11
4 19
15 19
42 43
24 38
24 30
24 25
24 42
24 31
24 28
24 36
25 38
25 27
20 41
29 37
29 31
29 33
29 32
21 30
21 33
21 32
21 36
21 27
21 34
33 40
28 40
28 33
28 38
13 14
41 42
41 44
17 44
32 44
34 39
34 35
22 35
22 39
22 25
22 37
27 34
7 16
7 14
3 4
3 16
3 10
35 41
35 39
35 36
16 17
31 34
31 39
43 44
26 31
26 34
23 43
23 26
23 32
23 31
23 25
23 36
30 33
30 32
